1579.27,1579.27,1579.27,1579.27,1579.27,1579.27,1579.27,1579.27,1579.27,1579.27,1579.27,1579.27,1579.27,1579.27,1579.27,1579.27,1579.27,1579.27,1579.27,1579.27,1579.27,1579.27,1579.27,1579.27,1579.27,1579.27,1579.27,1579.27,1579.27,1579.27,1579.27,1579.27,1579.27,1579.27,1579.27,1579.27,1579.27,1579.27,1579.27,1579.27,1579.27,1579.27,1579.27,1579.27,1579.27,1579.27,1579.27,1579.27,1579.27,1579.27,1579.27,1579.27,1579.27,1579.27,1579.27,1579.27,1579.27,1579.27,1579.27,1579.27,1579.27,1579.27,1579.27,1579.27,1579.27,1579.27,1579.27,1579.27,1579.27,1579.27,1579.27,1579.27,1579.27,1579.27,1579.27,1579.27,1579.27,1579.27,1579.27,1579.27,1579.27,1579.27,1579.27,1579.27,1579.27,1579.27,1579.27,1579.27,1579.27,1579.27,1579.27,1579.27,1579.27,1579.27,1579.27,1579.27,1579.27,1579.27,1579.27,1579.27,1579.27,1579.27,1579.27,1579.27,1579.27,1579.27,1579.27,1579.27,1579.27,1579.27,1579.27,1579.27,1579.27,1579.27,1579.27,1579.27,1579.27,1579.27,1579.27,1579.27,1579.27,1579.27,1579.27,1579.27,1579.27,1579.27,1579.27,1579.27,1579.27,1579.27,1579.27,1579.27,1579.27,1579.27,1579.27,1579.27,1579.27,1579.27,1579.27,1579.27,1579.27,1579.27,1579.27,1579.27,1579.27,1579.27,1579.27,1579.27,1579.27,1579.27,1579.27,1579.27,1579.27,1579.27,1579.27,1579.27,1579.27,1579.27,1579.27,1579.27,1579.27,1579.27,1579.27,1579.27,1579.27,1579.27,1579.27,1579.27,1579.27,1579.27,1579.27,1579.27,1579.27,1579.27,1579.27,1579.27,1579.27,1579.27,1579.27,1579.27,1579.27,1579.27,1579.27,1579.27,1579.27,1579.27,1579.27,1579.27,1579.27,1579.27,1579.27,1579.27,1579.27,1579.27,1579.27,1579.27,1579.27,1579.27,1579.27,1579.27,1579.27,1579.27,1579.27,1579.27,1579.27,1579.27,1579.27,1579.27,1579.27,1579.27,1579.27,1579.27,1579.27,1579.27,1579.27,1579.27,1579.27,1579.27,1579.27,1579.27,1579.27,1579.27,1579.27,1579.27,1579.27,1579.27,1579.27,1579.27,1579.27,1579.27,1579.27,1579.27,1579.27,1579.27,1579.27,1579.27,1579.27,1579.27,1579.27,1579.27,1579.27,1579.27,1579.27,1579.27,1579.27,1579.27,1579.27,1579.27,1579.27,1579.27,1579.27,1579.27,1579.27,1579.27,1579.27,1579.27,1579.27,1579.27,1579.27,1579.27,1579.27,1579.27,1579.27,1579.27,1579.27,1579.27,1579.27,1579.27,1579.27,1579.27,1579.27,1579.27,1579.27,1579.27,1579.27,1579.27,1579.27,1579.27,1579.27,1579.27,1579.27,1579.27,1579.27,1579.27,1579.27,1579.27,1579.27,1579.27,1579.27,1579.27,1579.27,1579.27,1579.27,1579.27,1579.27,1579.27,1579.27,1579.27,1579.27,1579.27,1579.27,1579.27,1579.27,1579.27,1579.27,1579.27,1579.27,1579.27,1579.27,1579.27,1579.27,1579.27,1579.27,1579.27,1579.27,1579.27,1579.27,1579.27,1579.27,1579.27,1579.27,1579.27,1579.27,1579.27,1579.27,1579.27,1579.27,1579.27,1579.27,1579.27,1579.27,1579.27,1579.27,1579.27,1579.27,1579.27,1579.27,1579.27,1579.27,1579.27,1579.27,1579.27,1579.27,1579.27,1579.27,1579.27,1579.27,1579.27,1579.27,1579.27,1579.27,1579.27,1579.27,1579.27,1579.27,1579.27,1579.27,1579.27,1579.27,1579.27,1579.27,1579.27,1579.27,1579.27,1579.27,1579.27,1579.27,1579.27,1579.27,1579.27,1579.27,1579.27,1579.27,1579.27,1579.27,1579.27,1579.27,1579.27,1579.27,1579.27,1579.27,1579.27,1579.27,1579.27,1579.27,1579.27,1579.27,1579.27,1579.27,1579.27,1579.27,1579.27,1579.27,1579.27,1579.27,1579.27,1579.27,1579.27,1579.27,1579.27,1579.27,1579.27,1579.27,1579.27,1579.27,1579.27,1579.27,1579.27,1579.27,1579.27,1579.27,1579.27,1579.27,1579.27,1579.27,1579.27,1579.27,1579.27,1579.27,1579.27,1579.27,1579.27,1579.27,1579.27,1579.27,1579.27,1579.27,1579.27,1579.27,1579.27,1579.27,1579.27,1579.27,1579.27,1579.27,1579.27,1579.27,1579.27,1579.27,1579.27,1579.27,1579.27,1579.27,1579.27,1579.27,1579.27,1579.27,1579.27,1579.27,1579.27,1579.27,1579.27,1579.27,1579.27,1579.27,1579.27,1579.27,1579.27,1579.27,1579.27,1579.27,1579.27,1579.27,1579.27,1579.27,1579.27,1579.27,1579.27,1579.27,1579.27,1579.27,1579.27,1579.27,1579.27,1579.27,1579.27,1579.27,1579.27,1579.27,1579.27,1579.27,1579.27,1579.27,1579.27,1579.27,1579.27,1579.27,1579.27,1579.27,1579.27,1579.27,1579.27,1579.27,1579.27,1579.27,1579.27,1579.27,1579.27,1579.27,1579.27,1579.27,1579.27,1579.27,1579.27,1579.27,1579.27,1579.27,1579.27,1579.27,1579.27,1579.27,1579.27,1579.27,1579.27,1579.27,1579.27,1579.27,1579.27,1579.27,1579.27,1579.27,1579.27,1579.27,1579.27,1579.27,1579.27,1579.27,1579.27,1579.27,1579.27,1579.27,1579.27,1579.27,1579.27,1579.27,1579.27,1579.27,1579.27,1579.27,1579.27,1579.27,1579.27,1579.27,1579.27,1579.27,1579.27,1579.27,1579.27,1579.27,1579.27,1579.27,1579.27,1579.27,1579.27,1579.27,1579.27,1579.27,1579.27,1579.27,1579.27,1579.27,1579.27,1579.27,1579.27,1579.27,1579.27,1579.27,1579.27,1579.27,1579.27,1579.27,1579.27,1579.27,1579.27,1579.27,1579.27,1579.27,1579.27,1579.27,1579.27,1579.27,1579.27,1579.27,1579.27,1579.27,1579.27,1579.27,1579.27,1579.27,1579.27,1579.27,1579.27,1579.27,1579.27,1579.27,1579.27,1579.27,1579.27,1579.27,1579.27,1579.27,1579.27,1579.27,1579.27,1579.27,1579.27,1579.27,1579.27,1579.27,1579.27,1579.27,1579.27,1579.27,1579.27,1579.27,1579.27,1579.27,1579.27,1579.27,1579.27,1579.27,1579.27,1579.27,1579.27,1579.27,1579.27,1579.27,1579.27,1579.27,1579.27,1579.27,1579.27,1579.27,1579.27,1579.27,1579.27,1579.27,1579.27,1579.27,1579.27,1579.27,1579.27,1579.27,1579.27,1579.27,1579.27,1579.27,1579.27,1579.27,1579.27,1579.27,1579.27,1579.27,1579.27,1579.27,1579.27,1579.27,1579.27,1579.27,1579.27,1579.27,1579.27,1579.27,1579.27,1579.27,1579.27,1579.27,1579.27,1579.27,1579.27,1579.27,1579.27,1579.27,1579.27,1579.27,1579.27,1579.27,1579.27,1579.27,1579.27,1579.27,1579.27,1579.27,1579.27,1579.27,1579.27,1579.27,1579.27,1579.27,1579.27,1579.27,1579.27,1579.27,1579.27,1579.27,1579.27,1579.27,1579.27,1579.27,1579.27,1579.27,1579.27,1579.27,1579.27,1579.27,1579.27,1579.27,1579.27,1579.27,1579.27,1579.27,1579.27,1579.27,1579.27,1579.27,1579.27,1579.27,1579.27,1579.27,1579.27,1579.27,1579.27,1579.27,1579.27,1579.27,1579.27,1579.27,1579.27,1579.27,1579.27,1579.27,1579.27,1579.27,1579.27,1579.27,1579.27,1579.27,1579.27,1579.27,1579.27,1579.27,1579.27,1579.27,1579.27,1579.27,1579.27,1579.27,1579.27,1579.27,1579.27,1579.27,1579.27,1579.27,1579.27,1579.27,1579.27,1579.27,1579.27,1579.27,1579.27,1579.27,1579.27,1579.27,1579.27,1579.27,1579.27,1579.27,1579.27,1579.27,1579.27,1579.27,1579.27,1579.27,1579.27,1579.27,1579.27,1579.27,1579.27,1579.27,1579.27,1579.27,1579.27,1579.27,1579.27,1579.27,1579.27,1579.27,1579.27,1579.27,1579.27,1579.27,1579.27,1579.27,1579.27,1579.27,1579.27,1579.27,1579.27,1579.27,1579.27,1579.27,1579.27,1579.27,1579.27,1579.27,1579.27,1579.27,1579.27,1579.27,1579.27,1579.27,1579.27,1579.27,1579.27,1579.27,1579.27,1579.27,1579.27,1579.27,1579.27,1579.27,1579.27,1579.27,1579.27,1579.27,1579.27,1579.27,1579.27,1579.27,1579.27,1579.27,1579.27,1579.27,1579.27,1579.27,1579.27,1579.27,1579.27,1579.27,1579.27,1579.27,1579.27,1579.27,1579.27,1579.27,1579.27,1579.27,1579.27,1579.27,1579.27,1579.27,1579.27,1579.27,1579.27,1579.27,1579.27,1579.27,1579.27,1579.27,1579.27,1579.27,1579.27,1579.27,1579.27,1579.27,1579.27,1579.27,1579.27,1579.27,1579.27,1579.27,1579.27,1579.27,1579.27,1579.27,1579.27,1579.27,1579.27,1579.27,1579.27,1579.27,1579.27,1579.27,1579.27,1579.27,1579.27,1579.27,1579.27,1579.27,1579.27,1579.27,1579.27,1579.27,1579.27,1579.27,1579.27,1579.27,1579.27,1579.27,1579.27,1579.27,1579.27,1579.27,1579.27,1579.27,1579.27,1579.27,1579.27,1579.27,1579.27,1579.27,1579.27,1579.27,1579.27,1579.27,1579.27,1579.27,1579.27,1579.27,1579.27,1579.27,1579.27,1579.27,1579.27,1579.27,1579.27,1579.27,1579.27,1579.27,1579.27,1579.27,1579.27,1579.27,1579.27,1579.27,1579.27,1579.27,1579.27,1579.27,1579.27,1579.27,1579.27,1579.27,1579.27,1579.27,1579.27,1579.27,1579.27,1579.27,1579.27,1579.27,1579.27,1579.27,1579.27,1579.27,1579.27,1579.27,1579.27,1579.27,1579.27,1579.27,1579.27,1579.27,1579.27,1579.27,1579.27,1579.27,1579.27,1579.27,1579.27,1579.27,1579.27,1579.27,1579.27,1579.27,1579.27,1579.27,1579.27,1579.27,1579.27,1579.27,1579.27,1579.27,1579.27,1579.27,1579.27,1579.27,1579.27,1579.27,1579.27,1579.27,1579.27,1579.27,1579.27,1579.27,1579.27,1579.27,1579.27,1579.27,1579.27,1579.27,1579.27,1579.27,1579.27,1579.27,1579.27,1579.27,1579.27,1579.27,1579.27,1579.27,1579.27,1579.27,1579.27,1579.27,1579.27,1579.27,1579.27,1579.27,1579.27,1579.27,1579.27,1579.27,1579.27,1579.27,1579.27,1579.27,1579.27,1579.27,1579.27,1579.27,1579.27,1579.27,1579.27,1579.27,1579.27,1579.27,1579.27,1579.27,1579.27,1579.27,1579.27,1579.27,1579.27,1579.27,1579.27,1579.27,1579.27,1579.27,1579.27,1579.27,1579.27,1579.27,1579.27,1579.27,1579.27,1579.27,1579.27,1579.27,1579.27,1579.27,1579.27,1579.27,1579.27,1579.27,1579.27,1579.27,1579.27,1579.27,1579.27,1579.27,1579.27,1579.27,1579.27,1579.27,1579.27,1579.27,1579.27,1579.27,1579.27,1579.27,1579.27,1579.27,1579.27,1579.27,1579.27,1579.27,1579.27,1579.27,1579.27,1579.27,1579.27,1579.27,1579.27,1579.27,1579.27,1579.27,1579.27,1579.27,1579.27,1579.27,1579.27,1579.27,1579.27,1579.27,1579.27,1579.27,1579.27,1579.27,1579.27,1579.27,1579.27,1579.27,1579.27,1579.27,1579.27,1579.27,1579.27,1579.27,1579.27,1579.27,1579.27,1579.27,1579.27,1579.27,1579.27,1579.27,1579.27,1579.27,1579.27,1579.27,1579.27,1579.27,1579.27,1579.27,1579.27,1579.27,1579.27,1579.27,1579.27,1579.27,1579.27,1579.27,1579.27,1579.27,1579.27,1579.27,1579.27,1579.27,1579.27,1579.27,1579.27,1579.27,1579.27,1579.27,1579.27,1579.27,1579.27,1579.27,1579.27,1579.27,1579.27,1579.27,1579.27,1579.27,1579.27,1579.27,1579.27,1579.27,1579.27,1579.27,1579.27,1579.27,1579.27,1579.27,1579.27,1579.27,1579.27,1579.27,1579.27,1579.27,1579.27,1579.27,1579.27,1579.27,1579.27,1579.27,1579.27,1579.27,1579.27,1579.27,1579.27,1579.27,1579.27,1579.27,1579.27,1579.27,1579.27,1579.27,1579.27,1579.27,1579.27,1579.27,1579.27,1579.27,1579.27,1579.27,1579.27,1579.27,1579.27,1579.27,1579.27,1579.27,1579.27,1579.27,1579.27,1579.27,1579.27,1579.27,1579.27,1579.27,1579.27,1579.27,1579.27,1579.27,1579.27,1579.27,1579.27,1579.27,1579.27,1579.27,1579.27,1579.27,1579.27,1579.27,1579.27,1579.27,1579.27,1579.27,1579.27,1579.27,1579.27,1579.27,1579.27,1579.27,1579.27,1579.27,1579.27,1579.27,1579.27,1579.27,1579.27,1579.27,1579.27,1579.27,1579.27,1579.27,1579.27,1579.27,1579.27,1579.27,1579.27,1579.27,1579.27,1579.27,1579.27,1579.27,1579.27,1579.27,1579.27,1579.27,1579.27,1579.27,1579.27,1579.27,1579.27,1579.27,1579.27,1579.27,1579.27,1579.27,1579.27,1579.27,1579.27,1579.27,1579.27,1579.27,1579.27,1579.27,1579.27,1579.27,1579.27,1579.27,1579.27,1579.27,1579.27,1579.27,1579.27,1579.27,1579.27,1579.27,1579.27,1579.27,1579.27,1579.27,1579.27,1579.27,1579.27,1579.27,1579.27,1579.27,1579.27,1579.27,1579.27,1579.27,1579.27,1579.27,1579.27,1579.27,1579.27,1579.27,1579.27,1579.27,1579.27,1579.27,1579.27,1579.27,1579.27,1579.27,1579.27,1579.27,1579.27,1579.27,1579.27,1579.27,1579.27,1579.27,1579.27,1579.27,1579.27,1579.27,1579.27,1579.27,1579.27,1579.27,1579.27,1579.27,1579.27,1579.27,1579.27,1579.27,1579.27,1579.27,1579.27,1579.27,1579.27,1579.27,1579.27,1579.27,1579.27,1579.27,1579.27,1579.27,1579.27,1579.27,1579.27,1579.27,1579.27,1579.27,1579.27,1579.27,1579.27,1579.27,1579.27,1579.27,1579.27,1579.27,1579.27,1579.27,1579.27,1579.27,1579.27,1579.27,1579.27,1579.27,1579.27,1579.27,1579.27,1579.27,1579.27,1579.27,1579.27,1579.27,1579.27,1579.27,1579.27,1579.27,1579.27,1579.27,1579.27,1579.27,1579.27,1579.27,1579.27,1579.27,1579.27,1579.27,1579.27,1579.27,1579.27,1579.27,1579.27,1579.27,1579.27,1579.27,1579.27,1579.27,1579.27,1579.27,1579.27,1579.27,1579.27,1579.27,1579.27,1579.27,1579.27,1579.27,1579.27,1579.27,1579.27,1579.27,1579.27,1579.27,1579.27,1579.27,1579.27,1579.27,1579.27,1579.27,1579.27,1579.27,1579.27,1579.27,1579.27,1579.27,1579.27,1579.27,1579.27,1579.27,1579.27,1579.27,1579.27,1579.27,1579.27,1579.27,1579.27,1579.27,1579.27,1579.27,1579.27,1579.27,1579.27,1579.27,1579.27,1579.27,1579.27,1579.27,1579.27,1579.27,1579.27,1579.27,1579.27,1579.27,1579.27,1579.27,1579.27,1579.27,1579.27,1579.27,1579.27,1579.27,1579.27,1579.27,1579.27,1579.27,1579.27,1579.27,1579.27,1579.27,1579.27,1579.27,1579.27,1579.27,1579.27,1579.27,1579.27,1579.27,1579.27,1579.27,1579.27,1579.27,1579.27,1579.27,1579.27,1579.27,1579.27,1579.27,1579.27,1579.27,1579.27,1579.27,1579.27,1579.27,1579.27,1579.27,1579.27,1579.27,1579.27,1579.27,1579.27,1579.27,1579.27,1579.27,1579.27,1579.27,1579.27,1579.27,1579.27,1579.27,1579.27,1579.27,1579.27,1579.27,1579.27,1579.27,1579.27,1579.27,1579.27,1579.27,1579.27,1579.27,1579.27,1579.27,1579.27,1579.27,1579.27,1579.27,1579.27,1579.27,1579.27,1579.27,1579.27,1579.27,1579.27,1579.27,1579.27,1579.27,1579.27,1579.27,1579.27,1579.27,1579.27,1579.27,1579.27,1579.27,1579.27,1579.27,1579.27,1579.27,1579.27,1579.27,1579.27,1579.27,1579.27,1579.27,1579.27,1579.27,1579.27,1579.27,1579.27,1579.27,1579.27,1579.27,1579.27,1579.27,1579.27,1579.27,1579.27,1579.27,1579.27,1579.27,1579.27,1579.27,1579.27,1579.27,1579.27,1579.27,1579.27,1579.27,1579.27,1579.27,1579.27,1579.27,1579.27,1579.27,1579.27,1579.27,1579.27,1579.27,1579.27,1579.27,1579.27,1579.27,1579.27,1579.27,1579.27,1579.27,1579.27,1579.27,1579.27,1579.27,1579.27,1579.27,1579.27,1579.27,1579.27,1579.27,1579.27,1579.27,1579.27,1579.27,1579.27,1579.27,1579.27,1579.27,1579.27,1579.27,1579.27,1579.27,1579.27,1579.27,1579.27,1579.27,1579.27,1579.27,1579.27,1579.27,1579.27,1579.27,1579.27,1579.27,1579.27,1579.27,1579.27,1579.27,1579.27,1579.27,1579.27,1579.27,1579.27,1579.27,1579.27,1579.27,1579.27,1579.27,1579.27,1579.27,1579.27,1579.27,1579.27,1579.27,1579.27,1579.27,1579.27,1579.27,1579.27,1579.27,1579.27,1579.27,1579.27,1579.27,1579.27,1579.27,1579.27,1579.27,1579.27,1579.27,1579.27,1579.27,1579.27,1579.27,1579.27,1579.27,1579.27,1579.27,1579.27,1579.27,1579.27,1579.27,1579.27,1579.27,1579.27,1579.27,1579.27,1579.27,1579.27,1579.27,1579.27,1579.27,1579.27,1579.27,1579.27,1579.27,1579.27,1579.27,1579.27,1579.27,1579.27,1579.27,1579.27,1579.27,1579.27,1579.27,1579.27,1579.27,1579.27,1579.27,1579.27,1579.27,1579.27,1579.27,1579.27,1579.27,1579.27,1579.27,1579.27,1579.27,1579.27,1579.27,1579.27,1579.27,1579.27,1579.27,1579.27,1579.27,1579.27,1579.27,1579.27,1579.27,1579.27,1579.27,1579.27,1579.27,1579.27,1579.27,1579.27,1579.27,1579.27,1579.27,1579.27,1579.27,1579.27,1579.27,1579.27,1579.27,1579.27,1579.27,1579.27,1579.27,1579.27,1579.27,1579.27,1579.27,1579.27,1579.27,1579.27,1579.27,1579.27,1579.27,1579.27,1579.27,1579.27,1579.27,1579.27,1579.27,1579.27,1579.27,1579.27,1579.27,1579.27,1579.27,1579.27,1579.27,1579.27,1579.27,1579.27,1579.27,1579.27,1579.27,1579.27,1579.27,1579.27,1579.27,1579.27,1579.27,1579.27,1579.27,1579.27,1579.27,1579.27,1579.27,1579.27,1579.27,1579.27,1579.27,1579.27,1579.27,1579.27,1579.27,1579.27,1579.27,1579.27,1579.27,1579.27,1579.27,1579.27,1579.27,1579.27,1579.27,1579.27,1579.27,1579.27,1579.27,1579.27,1579.27,1579.27,1579.27,1579.27,1579.27,1579.27,1579.27,1579.27,1579.27,1579.27,1579.27,1579.27,1579.27,1579.27,1579.27,1579.27,1579.27,1579.27,1579.27,1579.27,1579.27,1579.27,1579.27,1579.27,1579.27,1579.27,1579.27,1579.27,1579.27,1579.27,1579.27,1579.27,1579.27,1579.27,1579.27,1579.27,1579.27,1579.27,1579.27,1579.27,1579.27,1579.27,1579.27,1579.27,1579.27,1579.27,1579.27,1579.27,1579.27,1579.27,1579.27,1579.27,1579.27,1579.27,1579.27,1579.27,1579.27,1579.27,1579.27,1579.27,1579.27,1579.27,1579.27,1579.27,1579.27,1579.27,1579.27,1579.27,1579.27,1579.27,1579.27,1579.27,1579.27,1579.27,1579.27,1579.27,1579.27,1579.27,1579.27,1579.27,1579.27,1579.27,1579.27,1579.27,1579.27,1579.27,1579.27,1579.27,1579.27,1579.27,1579.27,1579.27,1579.27,1579.27,1579.27,1579.27,1579.27,1579.27,1579.27,1579.27,1579.27,1579.27,1579.27,1579.27,1579.27,1579.27,1579.27,1579.27,1579.27,1579.27,1579.27,1579.27,1579.27,1579.27,1579.27,1579.27,1579.27,1579.27,1579.27,1579.27,1579.27,1579.27,1579.27,1579.27,1579.27,1579.27,1579.27,1579.27,1579.27,1579.27,1579.27,1579.27,1579.27,1579.27,1579.27,1579.27,1579.27,1579.27,1579.27,1579.27,1579.27,1579.27,1579.27,1579.27,1579.27,1579.27,1579.27,1579.27,1579.27,1579.27,1579.27,1579.27,1579.27,1579.27,1579.27,1579.27,1579.27,1579.27,1579.27,1579.27,1579.27,1579.27,1579.27,1579.27,1579.27,1579.27,1579.27,1579.27,1579.27,1579.27,1579.27,1579.27,1579.27,1579.27,1579.27,1579.27,1579.27,1579.27,1579.27,1579.27,1579.27,1579.27,1579.27,1579.27,1579.27,1579.27,1579.27,1579.27,1579.27,1579.27,1579.27,1579.27,1579.27,1579.27,1579.27,1579.27,1579.27,1579.27,1579.27,1579.27,1579.27,1579.27,1579.27,1579.27,1579.27,1579.27,1579.27,1579.27,1579.27,1579.27,1579.27,1579.27,1579.27,1579.27,1579.27,1579.27,1579.27,1579.27,1579.27,1579.27,1579.27,1579.27,1579.27,1579.27,1579.27,1579.27,1579.27,1579.27,1579.27,1579.27,1579.27,1579.27,1579.27,1579.27,1579.27,1579.27,1579.27,1579.27,1579.27,1579.27,1579.27,1579.27,1579.27,1579.27,1579.27,1579.27,1579.27,1579.27,1579.27,1579.27,1579.27,1579.27,1579.27,1579.27,1579.27,1579.27,1579.27,1579.27,1579.27,1579.27,1579.27,1579.27,1579.27,1579.27,1579.27,1579.27,1579.27,1579.27,1579.27,1579.27,1579.27,1579.27,1579.27,1579.27,1579.27,1579.27,1579.27,1579.27,1579.27,1579.27,1579.27,1579.27,1579.27,1579.27,1579.27,1579.27,1579.27,1579.27,1579.27,1579.27,1579.27,1579.27,1579.27,1579.27,1579.27,1579.27,1579.27,1579.27,1579.27,1579.27,1579.27,1579.27,1579.27,1579.27,1579.27,1579.27,1579.27,1579.27,1579.27,1579.27,1579.27,1579.27,1579.27,1579.27,1579.27,1579.27,1579.27,1579.27,1579.27,1579.27,1579.27,1579.27,1579.27,1579.27,1579.27,1579.27,1579.27,1579.27,1579.27,1579.27,1579.27,1579.27,1579.27,1579.27,1579.27,1579.27,1579.27,1579.27,1579.27,1579.27,1579.27,1579.27,1579.27,1579.27,1579.27,1579.27,1579.27,1579.27,1579.27,1579.27,1579.27,1579.27,1579.27,1579.27,1579.27,1579.27,1579.27,1579.27,1579.27,1579.27,1579.27,1579.27,1579.27,1579.27,1579.27,1579.27,1579.27,1579.27,1579.27,1579.27,1579.27,1579.27,1579.27,1579.27,1579.27,1579.27,1579.27,1579.27,1579.27,1579.27,1579.27,1579.27,1579.27,1579.27,1579.27,1579.27,1579.27,1579.27,1579.27,1579.27,1579.27,1579.27,1579.27,1579.27,1579.27,1579.27,1579.27,1579.27,1579.27,1579.27,1579.27,1579.27,1579.27,1579.27,1579.27,1579.27,1579.27,1579.27,1579.27,1579.27,1579.27,1579.27,1579.27,1579.27,1579.27,1579.27,1579.27,1579.27,1579.27,1579.27,1579.27,1579.27,1579.27,1579.27,1579.27,1579.27,1579.27,1579.27,1579.27,1579.27,1579.27,1579.27,1579.27,1579.27,1579.27,1579.27,1579.27,1579.27,1579.27,1579.27,1579.27,1579.27,1579.27,1579.27,1579.27,1579.27,1579.27,1579.27,1579.27,1579.27,1579.27,1579.27,1579.27,1579.27,1579.27,1579.27,1579.27,1579.27,1579.27,1579.27,1579.27,1579.27,1579.27,1579.27,1579.27,1579.27,1579.27,1579.27,1579.27,1579.27,1579.27,1579.27,1579.27,1579.27,1579.27,1579.27,1579.27,1579.27,1579.27,1579.27,1579.27,1579.27,1579.27,1579.27,1579.27,1579.27,1579.27,1579.27,1579.27,1579.27,1579.27,1579.27,1579.27,1579.27,1579.27,1579.27,1579.27,1579.27,1579.27,1579.27,1579.27,1579.27,1579.27,1579.27,1579.27,1579.27,1579.27,1579.27,1579.27,1579.27,1579.27,1579.27,1579.27,1579.27,1579.27,1579.27,1579.27,1579.27,1579.27,1579.27,1579.27,1579.27,1579.27,1579.27,1579.27,1579.27,1579.27,1579.27,1579.27,1579.27,1579.27,1579.27,1579.27,1579.27,1579.27,1579.27,1579.27,1579.27,1579.27,1579.27,1579.27,1579.27,1579.27,1579.27,1579.27,1579.27,1579.27,1579.27,1579.27,1579.27,1579.27,1579.27,1579.27,1579.27,1579.27,1579.27,1579.27,1579.27,1579.27,1579.27,1579.27,1579.27,1579.27,1579.27,1579.27,1579.27,1579.27,1579.27,1579.27,1579.27,1579.27,1579.27,1579.27,1579.27,1579.27,1579.27,1579.27,1579.27,1579.27,1579.27,1579.27,1579.27,1579.27,1579.27,1579.27,1579.27,1579.27,1579.27,1579.27,1579.27,1579.27,1579.27,1579.27,1579.27,1579.27,1579.27,1579.27,1579.27,1579.27,1579.27,1579.27,1579.27,1579.27,1579.27,1579.27,1579.27,1579.27,1579.27,1579.27,1579.27,1579.27,1579.27,1579.27,1579.27,1579.27,1579.27,1579.27,1579.27,1579.27,1579.27,1579.27,1579.27,1579.27,1579.27,1579.27,1579.27,1579.27,1579.27,1579.27,1579.27,1579.27,1579.27,1579.27,1579.27,1579.27,1579.27,1579.27,1579.27,1579.27,1579.27,1579.27,1579.27,1579.27,1579.27,1579.27,1579.27,1579.27,1579.27,1579.27,1579.27,1579.27,1579.27,1579.27,1579.27,1579.27,1579.27,1579.27,1579.27,1579.27,1579.27,1579.27,1579.27,1579.27,1579.27,1579.27,1579.27,1579.27,1579.27,1579.27,1579.27,1579.27,1579.27,1579.27,1579.27,1579.27,1579.27,1579.27,1579.27,1579.27,1579.27,1579.27,1579.27,1579.27,1579.27,1579.27,1579.27,1579.27,1579.27,1579.27,1579.27,1579.27,1579.27,1579.27,1579.27,1579.27,1579.27,1579.27,1579.27,1579.27,1579.27,1579.27,1579.27,1579.27,1579.27,1579.27,1579.27,1579.27,1579.27,1579.27,1579.27,1579.27,1579.27,1579.27,1579.27,1579.27,1579.27,1579.27,1579.27,1579.27,1579.27,1579.27,1579.27,1579.27,1579.27,1579.27,1579.27,1579.27,1579.27,1579.27,1579.27,1579.27,1579.27,1579.27,1579.27,1579.27,1579.27,1579.27,1579.27,1579.27,1579.27,1579.27,1579.27,1579.27,1579.27,1579.27,1579.27,1579.27,1579.27,1579.27,1579.27,1579.27,1579.27,1579.27,1579.27,1579.27,1579.27,1579.27,1579.27,1579.27,1579.27,1579.27,1579.27,1579.27,1579.27,1579.27,1579.27,1579.27,1579.27,1579.27,1579.27,1579.27,1579.27,1579.27,1579.27,1579.27,1579.27,1579.27,1579.27,1579.27,1579.27,1579.27,1579.27,1579.27,1579.27,1579.27,1579.27,1579.27,1579.27,1579.27,1579.27,1579.27,1579.27,1579.27,1579.27,1579.27,1579.27,1579.27,1579.27,1579.27,1579.27,1579.27,1579.27,1579.27,1579.27,1579.27,1579.27,1579.27,1579.27,1579.27,1579.27,1579.27,1579.27,1579.27,1579.27,1579.27,1579.27,1579.27,1579.27,1579.27,1579.27,1579.27,1579.27,1579.27,1579.27,1579.27,1579.27,1579.27,1579.27,1579.27,1579.27,1579.27,1579.27,1579.27,1579.27,1579.27,1579.27,1579.27,1579.27,1579.27,1579.27,1579.27,1579.27,1579.27,1579.27,1579.27,1579.27,1579.27,1579.27,1579.27,1579.27,1579.27,1579.27,1579.27,1579.27,1579.27,1579.27,1579.27,1579.27,1579.27,1579.27,1579.27,1579.27,1579.27,1579.27,1579.27,1579.27,1579.27,1579.27,1579.27,1579.27,1579.27,1579.27,1579.27,1579.27,1579.27,1579.27,1579.27,1579.27,1579.27,1579.27,1579.27,1579.27,1579.27,1579.27,1579.27,1579.27,1579.27,1579.27,1579.27,1579.27,1579.27,1579.27,1579.27,1579.27,1579.27,1579.27,1579.27,1579.27,1579.27,1579.27,1579.27,1579.27,1579.27,1579.27,1579.27,1579.27,1579.27,1579.27,1579.27,1579.27,1579.27,1579.27,1579.27,1579.27,1579.27,1579.27,1579.27,1579.27,1579.27,1579.27,1579.27,1579.27,1579.27,1579.27,1579.27,1579.27,1579.27,1579.27,1579.27,1579.27,1579.27,1579.27,1579.27,1579.27,1579.27,1579.27,1579.27,1579.27,1579.27,1579.27,1579.27,1579.27,1579.27,1579.27,1579.27,1579.27,1579.27,1579.27,1579.27,1579.27,1579.27,1579.27,1579.27,1579.27,1579.27,1579.27,1579.27,1579.27,1579.27,1579.27,1579.27,1579.27,1579.27,1579.27,1579.27,1579.27,1579.27,1579.27,1579.27,1579.27,1579.27,1579.27,1579.27,1579.27,1579.27,1579.27,1579.27,1579.27,1579.27,1579.27,1579.27,1579.27,1579.27,1579.27,1579.27,1579.27,1579.27,1579.27,1579.27,1579.27,1579.27,1579.27,1579.27,1579.27,1579.27,1579.27,1579.27,1579.27,1579.27,1579.27,1579.27,1579.27,1579.27,1579.27,1579.27,1579.27,1579.27,1579.27,1579.27,1579.27,1579.27,1579.27,1579.27,1579.27,1579.27,1579.27,1579.27,1579.27,1579.27,1579.27,1579.27,1579.27,1579.27,1579.27,1579.27,1579.27,1579.27,1579.27,1579.27,1579.27,1579.27,1579.27,1579.27,1579.27,1579.27,1579.27,1579.27,1579.27,1579.27,1579.27,1579.27,1579.27,1579.27,1579.27,1579.27,1579.27,1579.27,1579.27,1579.27,1579.27,1579.27,1579.27,1579.27,1579.27,1579.27,1579.27,1579.27,1579.27,1579.27,1579.27,1579.27,1579.27,1579.27,1579.27,1579.27,1579.27,1579.27,1579.27,1579.27,1579.27,1579.27,1579.27,1579.27,1579.27,1579.27,1579.27,1579.27,1579.27,1579.27,1579.27,1579.27,1579.27,1579.27,1579.27,1579.27,1579.27,1579.27,1579.27,1579.27,1579.27,1579.27,1579.27,1579.27,1579.27,1579.27,1579.27,1579.27,1579.27,1579.27,1579.27,1579.27,1579.27,1579.27,1579.27,1579.27,1579.27,1579.27,1579.27,1579.27,1579.27,1579.27,1579.27,1579.27,1579.27,1579.27,1579.27,1579.27,1579.27,1579.27,1579.27,1579.27,1579.27,1579.27,1579.27,1579.27,1579.27,1579.27,1579.27,1579.27,1579.27,1579.27,1579.27,1579.27,1579.27,1579.27,1579.27,1579.27,1579.27,1579.27,1579.27,1579.27,1579.27,1579.27,1579.27,1579.27,1579.27,1579.27,1579.27,1579.27,1579.27,1579.27,1579.27,1579.27,1579.27,1579.27,1579.27,1579.27,1579.27,1579.27,1579.27,1579.27,1579.27,1579.27,1579.27,1579.27,1579.27,1579.27,1579.27,1579.27,1579.27,1579.27,1579.27,1579.27,1579.27,1579.27,1579.27,1579.27,1579.27,1579.27,1579.27,1579.27,1579.27,1579.27,1579.27,1579.27,1579.27,1579.27,1579.27,1579.27,1579.27,1579.27,1579.27,1579.27,1579.27,1579.27,1579.27,1579.27,1579.27,1579.27,1579.27,1579.27,1579.27,1579.27,1579.27,1579.27,1579.27,1579.27,1579.27,1579.27,1579.27,1579.27,1579.27,1579.27,1579.27,1579.27,1579.27,1579.27,1579.27,1579.27,1579.27,1579.27,1579.27,1579.27,1579.27,1579.27,1579.27,1579.27,1579.27,1579.27,1579.27,1579.27,1579.27,1579.27,1579.27,1579.27,1579.27,1579.27,1579.27,1579.27,1579.27,1579.27,1579.27,1579.27,1579.27,1579.27,1579.27,1579.27,1579.27,1579.27,1579.27,1579.27,1579.27,1579.27,1579.27,1579.27,1579.27,1579.27,1579.27,1579.27,1579.27,1579.27,1579.27,1579.27,1579.27,1579.27,1579.27,1579.27,1579.27,1579.27,1579.27,1579.27,1579.27,1579.27,1579.27,1579.27,1579.27,1579.27,1579.27,1579.27,1579.27,1579.27,1579.27,1579.27,1579.27,1579.27,1579.27,1579.27,1579.27,1579.27,1579.27,1579.27,1579.27,1579.27,1579.27,1579.27,1579.27,1579.27,1579.27,1579.27,1579.27,1579.27,1579.27,1579.27,1579.27,1579.27,1579.27,1579.27,1579.27,1579.27,1579.27,1579.27,1579.27,1579.27,1579.27,1579.27,1579.27,1579.27,1579.27,1579.27,1579.27,1579.27,1579.27,1579.27,1579.27,1579.27,1579.27,1579.27,1579.27,1579.27,1579.27,1579.27,1579.27,1579.27,1579.27,1579.27,1579.27,1579.27,1579.27,1579.27,1579.27,1579.27,1579.27,1579.27,1579.27,1579.27,1579.27,1579.27,1579.27,1579.27,1579.27,1579.27,1579.27,1579.27,1579.27,1579.27,1579.27,1579.27,1579.27,1579.27,1579.27,1579.27,1579.27,1579.27,1579.27,1579.27,1579.27,1579.27,1579.27,1579.27,1579.27,1579.27,1579.27,1579.27,1579.27,1579.27,1579.27,1579.27,1579.27,1579.27,1579.27,1579.27,1579.27,1579.27,1579.27,1579.27,1579.27,1579.27,1579.27,1579.27,1579.27,1579.27,1579.27,1579.27,1579.27,1579.27,1579.27,1579.27,1579.27,1579.27,1579.27,1579.27,1579.27,1579.27,1579.27,1579.27,1579.27,1579.27,1579.27,1579.27,1579.27,1579.27,1579.27,1579.27,1579.27,1579.27,1579.27,1579.27,1579.27,1579.27,1579.27,1579.27,1579.27,1579.27,1579.27,1579.27,1579.27,1579.27,1579.27,1579.27,1579.27,1579.27,1579.27,1579.27,1579.27,1579.27,1579.27,1579.27,1579.27,1579.27,1579.27,1579.27,1579.27,1579.27,1579.27,1579.27,1579.27,1579.27,1579.27,1579.27,1579.27,1579.27,1579.27,1579.27,1579.27,1579.27,1579.27,1579.27,1579.27,1579.27,1579.27,1579.27,1579.27,1579.27,1579.27,1579.27,1579.27,1579.27,1579.27,1579.27,1579.27,1579.27,1579.27,1579.27,1579.27,1579.27,1579.27,1579.27,1579.27,1579.27,1579.27,1579.27,1579.27,1579.27,1579.27,1579.27,1579.27,1579.27,1579.27,1579.27,1579.27,1579.27,1579.27,1579.27,1579.27,1579.27,1579.27,1579.27,1579.27,1579.27,1579.27,1579.27,1579.27,1579.27,1579.27,1579.27,1579.27,1579.27,1579.27,1579.27,1579.27,1579.27,1579.27,1579.27,1579.27,1579.27,1579.27,1579.27,1579.27,1579.27,1579.27,1579.27,1579.27,1579.27,1579.27,1579.27,1579.27,1579.27,1579.27,1579.27,1579.27,1579.27,1579.27,1579.27,1579.27,1579.27,1579.27,1579.27,1579.27,1579.27,1579.27,1579.27,1579.27,1579.27,1579.27,1579.27,1579.27,1579.27,1579.27,1579.27,1579.27,1579.27,1579.27,1579.27,1579.27,1579.27,1579.27,1579.27,1579.27,1579.27,1579.27,1579.27,1579.27,1579.27,1579.27,1579.27,1579.27,1579.27,1579.27,1579.27,1579.27,1579.27,1579.27,1579.27,1579.27,1579.27,1579.27,1579.27,1579.27,1579.27,1579.27,1579.27,1579.27,1579.27,1579.27,1579.27,1579.27,1579.27,1579.27,1579.27,1579.27,1579.27,1579.27,1579.27,1579.27,1579.27,1579.27,1579.27,1579.27,1579.27,1579.27,1579.27,1579.27,1579.27,1579.27,1579.27,1579.27,1579.27,1579.27,1579.27,1579.27,1579.27,1579.27,1579.27,1579.27,1579.27,1579.27,1579.27,1579.27,1579.27,1579.27,1579.27,1579.27,1579.27,1579.27,1579.27,1579.27,1579.27,1579.27,1579.27,1579.27,1579.27,1579.27,1579.27,1579.27,1579.27,1579.27,1579.27,1579.27,1579.27,1579.27,1579.27,1579.27,1579.27,1579.27,1579.27,1579.27,1579.27,1579.27,1579.27,1579.27,1579.27,1579.27,1579.27,1579.27,1579.27,1579.27,1579.27,1579.27,1579.27,1579.27,1579.27,1579.27,1579.27,1579.27,1579.27,1579.27,1579.27,1579.27,1579.27,1579.27,1579.27,1579.27,1579.27,1579.27,1579.27,1579.27,1579.27,1579.27,1579.27,1579.27,1579.27,1579.27,1579.27,1579.27,1579.27,1579.27,1579.27,1579.27,1579.27,1579.27,1579.27,1579.27,1579.27,1579.27,1579.27,1579.27,1579.27,1579.27,1579.27,1579.27,1579.27,1579.27,1579.27,1579.27,1579.27,1579.27,1579.27,1579.27,1579.27,1579.27,1579.27,1579.27,1579.27,1579.27,1579.27,1579.27,1579.27,1579.27,1579.27,1579.27,1579.27,1579.27,1579.27,1579.27,1579.27,1579.27,1579.27,1579.27,1579.27,1579.27,1579.27,1579.27,1579.27,1579.27,1579.27,1579.27,1579.27,1579.27,1579.27,1579.27,1579.27,1579.27,1579.27,1579.27,1579.27,1579.27,1579.27,1579.27,1579.27,1579.27,1579.27,1579.27,1579.27,1579.27,1579.27,1579.27,1579.27,1579.27,1579.27,1579.27,1579.27,1579.27,1579.27,1579.27,1579.27,1579.27,1579.27,1579.27,1579.27,1579.27,1579.27,1579.27,1579.27,1579.27,1579.27,1579.27,1579.27,1579.27,1579.27,1579.27,1579.27,1579.27,1579.27,1579.27,1579.27,1579.27,1579.27,1579.27,1579.27,1579.27,1579.27,1579.27,1579.27,1579.27,1579.27,1579.27,1579.27,1579.27,1579.27,1579.27,1579.27,1579.27,1579.27,1579.27,1579.27,1579.27,1579.27,1579.27,1579.27,1579.27,1579.27,1579.27,1579.27,1579.27,1579.27,1579.27,1579.27,1579.27,1579.27,1579.27,1579.27,1579.27,1579.27,1579.27,1579.27,1579.27,1579.27,1579.27,1579.27,1579.27,1579.27,1579.27,1579.27,1579.27,1579.27,1579.27,1579.27,1579.27,1579.27,1579.27,1579.27,1579.27,1579.27,1579.27,1579.27,1579.27,1579.27,1579.27,1579.27,1579.27,1579.27,1579.27,1579.27,1579.27,1579.27,1579.27,1579.27,1579.27,1579.27,1579.27,1579.27,1579.27,1579.27,1579.27,1579.27,1579.27,1579.27,1579.27,1579.27,1579.27,1579.27,1579.27,1579.27,1579.27,1579.27,1579.27,1579.27,1579.27,1579.27,1579.27,1579.27,1579.27,1579.27,1579.27,1579.27,1579.27,1579.27,1579.27,1579.27,1579.27,1579.27,1579.27,1579.27,1579.27,1579.27,1579.27,1579.27,1579.27,1579.27,1579.27,1579.27,1579.27,1579.27,1579.27,1579.27,1579.27,1579.27,1579.27,1579.27,1579.27,1579.27,1579.27,1579.27,1579.27,1579.27,1579.27,1579.27,1579.27,1579.27,1579.27,1579.27,1579.27,1579.27,1579.27,1579.27,1579.27,1579.27,1579.27,1579.27,1579.27,1579.27,1579.27,1579.27,1579.27,1579.27,1579.27,1579.27,1579.27,1579.27,1579.27,1579.27,1579.27,1579.27,1579.27,1579.27,1579.27,1579.27,1579.27,1579.27,1579.27,1579.27,1579.27,1579.27,1579.27,1579.27,1579.27,1579.27,1579.27,1579.27,1579.27,1579.27,1579.27,1579.27,1579.27,1579.27,1579.27,1579.27,1579.27,1579.27,1579.27,1579.27,1579.27,1579.27,1579.27,1579.27,1579.27,1579.27,1579.27,1579.27,1579.27,1579.27,1579.27,1579.27,1579.27,1579.27,1579.27,1579.27,1579.27,1579.27,1579.27,1579.27,1579.27,1579.27,1579.27,1579.27,1579.27,1579.27,1579.27,1579.27,1579.27,1579.27,1579.27,1579.27,1579.27,1579.27,1579.27,1579.27,1579.27,1579.27,1579.27,1579.27,1579.27,1579.27,1579.27,1579.27,1579.27,1579.27,1579.27,1579.27,1579.27,1579.27,1579.27,1579.27,1579.27,1579.27,1579.27,1579.27,1579.27,1579.27,1579.27,1579.27,1579.27,1579.27,1579.27,1579.27,1579.27,1579.27,1579.27,1579.27,1579.27,1579.27,1579.27,1579.27,1579.27,1579.27,1579.27,1579.27,1579.27,1579.27,1579.27,1579.27,1579.27,1579.27,1579.27,1579.27,1579.27,1579.27,1579.27,1579.27,1579.27,1579.27,1579.27,1579.27,1579.27,1579.27,1579.27,1579.27,1579.27,1579.27,1579.27,1579.27,1579.27,1579.27,1579.27,1579.27,1579.27,1579.27,1579.27,1579.27,1579.27,1579.27,1579.27,1579.27,1579.27,1579.27,1579.27,1579.27,1579.27,1579.27,1579.27,1579.27,1579.27,1579.27,1579.27,1579.27,1579.27,1579.27,1579.27,1579.27,1579.27,1579.27,1579.27,1579.27,1579.27,1579.27,1579.27,1579.27,1579.27,1579.27,1579.27,1579.27,1579.27,1579.27,1579.27,1579.27,1579.27,1579.27,1579.27,1579.27,1579.27,1579.27,1579.27,1579.27,1579.27,1579.27,1579.27,1579.27,1579.27,1579.27,1579.27,1579.27,1579.27,1579.27,1579.27,1579.27,1579.27,1579.27,1579.27,1579.27,1579.27,1579.27,1579.27,1579.27,1579.27,1579.27,1579.27,1579.27,1579.27,1579.27,1579.27,1579.27,1579.27,1579.27,1579.27,1579.27,1579.27,1579.27,1579.27,1579.27,1579.27,1579.27,1579.27,1579.27,1579.27,1579.27,1579.27,1579.27,1579.27,1579.27,1579.27,1579.27,1579.27,1579.27,1579.27,1579.27,1579.27,1579.27,1579.27,1579.27,1579.27,1579.27,1579.27,1579.27,1579.27,1579.27,1579.27,1579.27,1579.27,1579.27,1579.27,1579.27,1579.27,1579.27,1579.27,1579.27,1579.27,1579.27,1579.27,1579.27,1579.27,1579.27,1579.27,1579.27,1579.27,1579.27,1579.27,1579.27,1579.27,1579.27,1579.27,1579.27,1579.27,1579.27,1579.27,1579.27,1579.27,1579.27,1579.27,1579.27,1579.27,1579.27,1579.27,1579.27,1579.27,1579.27,1579.27,1579.27,1579.27,1579.27,1579.27,1579.27,1579.27,1579.27,1579.27,1579.27,1579.27,1579.27,1579.27,1579.27,1579.27,1579.27,1579.27,1579.27,1579.27,1579.27,1579.27,1579.27,1579.27,1579.27,1579.27,1579.27,1579.27,1579.27,1579.27,1579.27,1579.27,1579.27,1579.27,1579.27,1579.27,1579.27,1579.27